environments_harbor/cryptominisat_xor_clause_optimization_medium/environment/data/cnf_files/file3.cnf
c CNF file without XOR patterns
c This file contains random clauses that do not form XOR constraint patterns
c 6 variables, 12 clauses
c Generated for testing XOR pattern detection
p cnf 6 12
1 2 0
-1 3 0
2 -3 4 0
-2 -4 5 0
3 4 -5 0
-3 6 0
1 -4 6 0
-1 -2 0
2 3 -6 0
4 5 6 0
-5 -6 1 0
1 2 3 4 0